p cnf 28 69
a 15 7 0
e 1 2 3 4 5 6 8 9 10 11 12 13 14 16 17 18 19 20 21 22 23 24 25 26 27 28 0
3 1 0
3 2 0
-1 -2 -3 0
4 -5 -6 0
-4 5 -6 0
4 5 6 0
-4 -5 6 0
-3 -6 -7 0
3 6 -7 0
-3 6 7 0
3 -6 7 0
9 -7 0
9 -8 0
7 8 -9 0
11 10 0
11 1 0
-10 -1 -11 0
-13 12 0
-13 3 0
-12 -3 13 0
11 13 -14 0
-11 -13 -14 0
11 -13 14 0
-11 13 14 0
15 13 0
15 3 0
-13 -3 -15 0
16 3 -17 0
-16 -3 -17 0
16 -3 17 0
-16 3 17 0
18 -15 0
18 17 0
15 -17 -18 0
-17 19 -20 0
17 -19 -20 0
-17 -19 20 0
17 19 20 0
-21 18 0
-21 -20 0
-18 20 21 0
14 21 -22 0
-14 -21 -22 0
14 -21 22 0
-14 21 22 0
-23 2 0
-23 1 0
-2 -1 23 0
4 24 -25 0
-4 -24 -25 0
4 -24 25 0
-4 24 25 0
-23 25 -26 0
23 -25 -26 0
-23 -25 26 0
23 25 26 0
27 -22 0
27 26 0
22 -26 -27 0
28 -9 0
28 -27 0
9 27 -28 0
-24 -11 22 0
25 -13 -5 21 15 -3 9 0
-8 21 28 -9 6 4 -24 -19 0
-22 23 -18 -11 3 -4 0
1 25 -15 -19 6 0
8 28 -1 -27 -15 17 0
28 0
